I AM STARTING --------------------
[]
NOW I AM GOING TO SOLVE THE MODEL FOR FIRST SOLUTION
Set parameter Username
Set parameter LicenseID to value 2716274
Academic license - for non-commercial use only - expires 2026-09-30
Gurobi Optimizer version 12.0.3 build v12.0.3rc0 (linux64 - "Ubuntu 22.04.5 LTS")

CPU model: AMD EPYC 7742 64-Core Processor, instruction set [SSE2|AVX|AVX2]
Thread count: 128 physical cores, 256 logical processors, using up to 32 threads

Optimize a model with 49978 rows, 13233 columns and 145254 nonzeros
Model fingerprint: 0xda32a9f1
Coefficient statistics:
  Matrix range     [1e+00, 5e+00]
  Objective range  [1e+00, 5e+00]
  Bounds range     [1e+00, 1e+00]
  RHS range        [1e+00, 1e+03]
Presolve removed 44594 rows and 11115 columns
Presolve time: 0.04s
Presolved: 5384 rows, 2118 columns, 14391 nonzeros

Concurrent LP optimizer: primal simplex, dual simplex, and barrier
Showing barrier log only...

Ordering time: 0.00s

Barrier statistics:
 Dense cols : 10
 AA' NZ     : 5.544e+03
 Factor NZ  : 1.891e+04 (roughly 1 MB of memory)
 Factor Ops : 3.313e+05 (less than 1 second per iteration)
 Threads    : 1

                  Objective                Residual
Iter       Primal          Dual         Primal    Dual     Compl     Time
   0   7.04896023e+02  7.86932479e+03  5.28e+00 4.19e+00  2.12e+01     0s
   1   2.92288004e+02  6.25476964e+03  3.29e-01 1.22e-12  3.30e+00     0s
   2   3.11867325e+02  8.19907065e+02  7.55e-03 1.09e-13  2.35e-01     0s
   3   4.01665105e+02  5.20071462e+02  2.09e-03 5.53e-14  5.47e-02     0s
   4   4.45023338e+02  4.56650236e+02  9.49e-05 3.21e-14  5.35e-03     0s
   5   4.49153796e+02  4.49529004e+02  5.95e-07 7.31e-08  1.72e-04     0s
   6   4.49249658e+02  4.49250352e+02  3.92e-09 2.17e-09  3.18e-07     0s
   7   4.49250000e+02  4.49250000e+02  7.30e-12 2.14e-11  1.44e-12     0s

Barrier solved model in 7 iterations and 0.05 seconds (0.04 work units)
Optimal objective 4.49250000e+02

Crossover log...

     143 DPushes remaining with DInf 0.0000000e+00                 0s
       0 DPushes remaining with DInf 0.0000000e+00                 0s

       0 PPushes remaining with PInf 0.0000000e+00                 0s

  Push phase complete: Pinf 0.0000000e+00, Dinf 0.0000000e+00      0s


Solved with barrier
Iteration    Objective       Primal Inf.    Dual Inf.      Time
     146    4.4925000e+02   0.000000e+00   0.000000e+00      0s

Use crossover to convert LP symmetric solution to basic solution...
Crossover log...

       0 DPushes remaining with DInf 0.0000000e+00                 0s

     332 PPushes remaining with PInf 0.0000000e+00                 0s
       0 PPushes remaining with PInf 0.0000000e+00                 0s

  Push phase complete: Pinf 0.0000000e+00, Dinf 0.0000000e+00      0s

Iteration    Objective       Primal Inf.    Dual Inf.      Time
     525    4.4925000e+02   0.000000e+00   0.000000e+00      0s

Solved in 525 iterations and 0.08 seconds (0.06 work units)
Optimal objective  4.492500000e+02
Objective value: 449.25
lam[0,0] = 0.25
lam[0,1] = 0.25
lam[0,2] = 0.25
lam[0,3] = 0.25
tau[0,0,L0] = 0.75
tau[0,0,L1] = 0.75
tau[0,0,L2] = 0.25
tau[0,1,L0] = 0.75
tau[0,1,L1] = 0.5
tau[0,1,L2] = 0.5
tau[0,2,L0] = 0.75
tau[0,2,L1] = 0.75
tau[0,2,L2] = 0.25
tau[0,3,L0] = 0.0
tau[0,3,L1] = 0.0
tau[0,3,L2] = 0.0
tau[0,4,L0] = 0.0
tau[0,4,L1] = 0.0
tau[0,4,L2] = 0.0
tau[0,5,L0] = 0.0
tau[0,5,L1] = 0.0
tau[0,5,L2] = 0.0
m[0,0] = 1.0
m[0,1] = 1.0
m[0,2] = 1.0
m[0,3] = 0.25
m[0,4] = 1.0
m[0,5] = 1.0
m[0,6] = 1.0
m[0,7] = 0.75
m[0,8] = 1.0
m[0,9] = 1.0
m[0,10] = 1.0
m[0,11] = 1.0
m[0,12] = 1.0
m[0,13] = 1.0
m[0,14] = 1.0
m[0,15] = 1.0
m[0,16] = 1.0
m[0,17] = 1.0
m[0,18] = 1.0
m[0,19] = 1.0
m[0,20] = 1.0
m[0,21] = 1.0
m[0,22] = 1.0
m[0,23] = 0.5
m[0,24] = 1.0
m[0,25] = 1.0
m[0,26] = 1.0
m[0,27] = 1.0
m[0,28] = 1.0
m[0,29] = 1.0
m[0,30] = 1.0
m[0,31] = 1.0
m[0,32] = 1.0
m[0,33] = 1.0
m[0,34] = 1.0
m[0,35] = 1.0
m[0,36] = 1.0
m[0,37] = 1.0
m[0,38] = 1.0
m[0,39] = 1.0
m[0,40] = 1.0
m[0,41] = 1.0
m[0,42] = 1.0
m[0,43] = 1.0
m[0,44] = 1.0
m[0,45] = 1.0
m[0,46] = 1.0
m[0,47] = 1.0
m[0,48] = 1.0
m[0,49] = 1.0
m[0,50] = 1.0
m[0,51] = 1.0
m[0,52] = 0.25
m[0,53] = 1.0
m[0,54] = 1.0
m[0,55] = 1.0
m[0,56] = 1.0
m[0,57] = 1.0
m[0,58] = 1.0
m[0,59] = 1.0
m[0,60] = 1.0
m[0,61] = 1.0
m[0,62] = 1.0
m[0,63] = 1.0
m[0,64] = 1.0
m[0,65] = 0.5
m[0,66] = 1.0
m[0,67] = 0.5
m[0,68] = 1.0
m[0,69] = 1.0
m[0,70] = 1.0
m[0,71] = 1.0
m[0,72] = 0.5
m[0,73] = 1.0
m[0,74] = 1.0
m[0,75] = 1.0
m[0,76] = 1.0
m[0,77] = 1.0
m[0,78] = 1.0
m[0,79] = 1.0
m[0,80] = 1.0
m[0,81] = 1.0
m[0,82] = 1.0
m[0,83] = 1.0
m[0,84] = 1.0
m[0,85] = 0.5
m[0,86] = 0.75
m[0,87] = 1.0
m[0,88] = 1.0
m[0,89] = 1.0
m[0,90] = 1.0
m[0,91] = 1.0
m[0,92] = 1.0
m[0,93] = 1.0
m[0,94] = 1.0
m[0,95] = 1.0
m[0,96] = 1.0
m[0,97] = 1.0
m[0,98] = 1.0
m[0,99] = 0.75
m[0,100] = 1.0
m[0,101] = 1.0
m[0,102] = 1.0
m[0,103] = 1.0
m[0,104] = 1.0
m[0,105] = 0.5
m[0,106] = 1.0
m[0,107] = 1.0
m[0,108] = 1.0
m[0,109] = 1.0
m[0,110] = 1.0
m[0,111] = 1.0
m[0,112] = 1.0
m[0,113] = 1.0
m[0,114] = 1.0
m[0,115] = 1.0
m[0,116] = 1.0
m[0,117] = 0.25
m[0,118] = 1.0
m[0,119] = 1.0
m[0,120] = 1.0
m[0,121] = 1.0
m[0,122] = 1.0
m[0,123] = 1.0
m[0,124] = 1.0
m[0,125] = 1.0
m[0,126] = 1.0
m[0,127] = 1.0
m[0,128] = 0.25
m[0,129] = 1.0
m[0,130] = 1.0
m[0,131] = 1.0
m[0,132] = 1.0
m[0,133] = 1.0
m[0,134] = 0.75
m[0,135] = 1.0
m[0,136] = 1.0
m[0,137] = 1.0
m[0,138] = 1.0
m[0,139] = 1.0
m[0,140] = 1.0
m[0,141] = 1.0
m[0,142] = 1.0
m[0,143] = 1.0
m[0,144] = 1.0
m[0,145] = 1.0
m[0,146] = 0.75
m[0,147] = 1.0
m[0,148] = 1.0
m[0,149] = 1.0
m[0,150] = 1.0
m[0,151] = 1.0
m[0,152] = 0.75
m[0,153] = 1.0
m[0,154] = 1.0
m[0,155] = 1.0
m[0,156] = 1.0
m[0,157] = 1.0
m[0,158] = 0.75
m[0,159] = 1.0
m[0,160] = 1.0
m[0,161] = 1.0
m[0,162] = 1.0
m[0,163] = 1.0
m[0,164] = 1.0
m[0,165] = 1.0
m[0,166] = 1.0
m[0,167] = 1.0
m[0,168] = 1.0
m[0,169] = 1.0
m[0,170] = 1.0
m[0,171] = 0.75
m[0,172] = 1.0
m[0,173] = 1.0
m[0,174] = 1.0
m[0,175] = 0.75
m[0,176] = 1.0
m[0,177] = 1.0
m[0,178] = 1.0
m[0,179] = 1.0
m[0,180] = 1.0
m[0,181] = 1.0
m[0,182] = 1.0
m[0,183] = 1.0
m[0,184] = 1.0
m[0,185] = 1.0
m[0,186] = 1.0
m[0,187] = 1.0
m[0,188] = 1.0
m[0,189] = 1.0
m[0,190] = 1.0
m[0,191] = 0.75
m[0,192] = 0.5
m[0,193] = 1.0
m[0,194] = 1.0
m[0,195] = 1.0
m[0,196] = 1.0
m[0,197] = 1.0
m[0,198] = 1.0
m[0,199] = 0.75
m[0,200] = 0.5
m[0,201] = 1.0
m[0,202] = 1.0
m[0,203] = 1.0
m[0,204] = 1.0
m[0,205] = 1.0
m[0,206] = 1.0
m[0,207] = 1.0
m[0,208] = 1.0
m[0,209] = 1.0
m[0,210] = 1.0
m[0,211] = 1.0
m[0,212] = 0.25
m[0,213] = 1.0
m[0,214] = 1.0
m[0,215] = 1.0
m[0,216] = 1.0
m[0,217] = 1.0
m[0,218] = 1.0
m[0,219] = 1.0
m[0,220] = 1.0
m[0,221] = 1.0
m[0,222] = 1.0
m[0,223] = 1.0
m[0,224] = 1.0
m[0,225] = 1.0
m[0,226] = 1.0
m[0,227] = 1.0
m[0,228] = 1.0
m[0,229] = 1.0
m[0,230] = 1.0
m[0,231] = 1.0
m[0,232] = 1.0
m[0,233] = 1.0
m[0,234] = 1.0
m[0,235] = 1.0
m[0,236] = 1.0
m[0,237] = 1.0
m[0,238] = 0.25
m[0,239] = 1.0
m[0,240] = 1.0
m[0,241] = 1.0
m[0,242] = 1.0
m[0,243] = 1.0
m[0,244] = 1.0
m[0,245] = 1.0
m[0,246] = 1.0
m[0,247] = 1.0
m[0,248] = 1.0
m[0,249] = 1.0
m[0,250] = 1.0
m[0,251] = 1.0
m[0,252] = 1.0
m[0,253] = 0.75
m[0,254] = 1.0
m[0,255] = 1.0
m[0,256] = 1.0
m[0,257] = 1.0
m[0,258] = 1.0
m[0,259] = 1.0
m[0,260] = 0.25
m[0,261] = 1.0
m[0,262] = 1.0
m[0,263] = 1.0
m[0,264] = 1.0
m[0,265] = 0.5
m[0,266] = 1.0
m[0,267] = 1.0
m[0,268] = 1.0
m[0,269] = 1.0
m[0,270] = 1.0
m[0,271] = 1.0
m[0,272] = 1.0
m[0,273] = 1.0
m[0,274] = 1.0
m[0,275] = 1.0
m[0,276] = 1.0
m[0,277] = 1.0
m[0,278] = 1.0
m[0,279] = 1.0
m[0,280] = 1.0
m[0,281] = 1.0
m[0,282] = 1.0
m[0,283] = 1.0
m[0,284] = 1.0
m[0,285] = 1.0
m[0,286] = 1.0
m[0,287] = 1.0
m[0,288] = 1.0
m[0,289] = 1.0
m[0,290] = 1.0
m[0,291] = 1.0
m[0,292] = 1.0
m[0,293] = 1.0
m[0,294] = 1.0
m[0,295] = 1.0
m[0,296] = 1.0
m[0,297] = 1.0
m[0,298] = 1.0
m[0,299] = 1.0
m[0,300] = 0.5
m[0,301] = 1.0
m[0,302] = 1.0
m[0,303] = 1.0
m[0,304] = 0.75
m[0,305] = 1.0
m[0,306] = 1.0
m[0,307] = 1.0
m[0,308] = 0.5
m[0,309] = 1.0
m[0,310] = 1.0
m[0,311] = 1.0
m[0,312] = 1.0
m[0,313] = 1.0
m[0,314] = 1.0
m[0,315] = 1.0
m[0,316] = 1.0
m[0,317] = 0.25
m[0,318] = 1.0
m[0,319] = 1.0
m[0,320] = 0.75
m[0,321] = 1.0
m[0,322] = 1.0
m[0,323] = 1.0
m[0,324] = 1.0
m[0,325] = 0.75
m[0,326] = 1.0
m[0,327] = 0.75
m[0,328] = 1.0
m[0,329] = 1.0
m[0,330] = 1.0
m[0,331] = 1.0
m[0,332] = 0.25
m[0,333] = 1.0
m[0,334] = 1.0
m[0,335] = 1.0
m[0,336] = 1.0
m[0,337] = 1.0
m[0,338] = 1.0
m[0,339] = 0.75
m[0,340] = 1.0
m[0,341] = 1.0
m[0,342] = 0.75
m[0,343] = 1.0
m[0,344] = 1.0
m[0,345] = 1.0
m[0,346] = 1.0
m[0,347] = 1.0
m[0,348] = 0.75
m[0,349] = 1.0
m[0,350] = 1.0
m[0,351] = 1.0
m[0,352] = 1.0
m[0,353] = 1.0
m[0,354] = 1.0
m[0,355] = 1.0
m[0,356] = 1.0
m[0,357] = 1.0
m[0,358] = 1.0
m[0,359] = 1.0
m[0,360] = 1.0
m[0,361] = 1.0
m[0,362] = 1.0
m[0,363] = 1.0
m[0,364] = 1.0
m[0,365] = 1.0
m[0,366] = 1.0
m[0,367] = 1.0
m[0,368] = 1.0
m[0,369] = 1.0
m[0,370] = 1.0
m[0,371] = 1.0
m[0,372] = 1.0
m[0,373] = 0.25
m[0,374] = 1.0
m[0,375] = 1.0
m[0,376] = 1.0
m[0,377] = 1.0
m[0,378] = 1.0
m[0,379] = 1.0
m[0,380] = 1.0
m[0,381] = 1.0
m[0,382] = 1.0
m[0,383] = 1.0
m[0,384] = 0.5
m[0,385] = 1.0
m[0,386] = 1.0
m[0,387] = 0.5
m[0,388] = 1.0
m[0,389] = 1.0
m[0,390] = 1.0
m[0,391] = 1.0
m[0,392] = 1.0
m[0,393] = 1.0
m[0,394] = 1.0
m[0,395] = 1.0
m[0,396] = 0.5
m[0,397] = 1.0
m[0,398] = 1.0
m[0,399] = 1.0
m[0,400] = 1.0
m[0,401] = 1.0
m[0,402] = 0.5
m[0,403] = 1.0
m[0,404] = 1.0
m[0,405] = 1.0
m[0,406] = 1.0
m[0,407] = 1.0
m[0,408] = 1.0
m[0,409] = 1.0
m[0,410] = 1.0
m[0,411] = 0.25
m[0,412] = 1.0
m[0,413] = 1.0
m[0,414] = 1.0
m[0,415] = 1.0
m[0,416] = 1.0
m[0,417] = 1.0
m[0,418] = 0.75
m[0,419] = 1.0
m[0,420] = 1.0
m[0,421] = 1.0
m[0,422] = 1.0
m[0,423] = 1.0
m[0,424] = 1.0
m[0,425] = 1.0
m[0,426] = 0.25
m[0,427] = 1.0
m[0,428] = 1.0
m[0,429] = 0.75
m[0,430] = 0.75
m[0,431] = 1.0
m[0,432] = 1.0
m[0,433] = 0.25
m[0,434] = 1.0
m[0,435] = 1.0
m[0,436] = 0.75
m[0,437] = 0.75
m[0,438] = 1.0
m[0,439] = 0.75
m[0,440] = 0.25
m[0,441] = 1.0
m[0,442] = 1.0
m[0,443] = 0.75
m[0,444] = 1.0
m[0,445] = 1.0
m[0,446] = 1.0
m[0,447] = 1.0
m[0,448] = 1.0
m[0,449] = 0.75
m[0,450] = 1.0
m[0,451] = 1.0
m[0,452] = 0.75
m[0,453] = 1.0
m[0,454] = 1.0
m[0,455] = 1.0
m[0,456] = 1.0
m[0,457] = 1.0
m[0,458] = 1.0
m[0,459] = 1.0
m[0,460] = 1.0
m[0,461] = 1.0
m[0,462] = 0.5
m[0,463] = 1.0
m[0,464] = 1.0
m[0,465] = 1.0
m[0,466] = 1.0
m[0,467] = 1.0
m[0,468] = 1.0
m[0,469] = 1.0
m[0,470] = 1.0
u[0] = 1.0
o_u[0,0] = 0.25
o_u[0,1] = 0.25
o_u[0,2] = 0.25
o_u[0,3] = 0.25
------------------------------------------------------------------------
------------------------------------------------------------------------
Saved hierarchical tree visualization to milp_tree_levels.png
[]
Gurobi Optimizer version 12.0.3 build v12.0.3rc0 (linux64 - "Ubuntu 22.04.5 LTS")

CPU model: AMD EPYC 7742 64-Core Processor, instruction set [SSE2|AVX|AVX2]
Thread count: 128 physical cores, 256 logical processors, using up to 32 threads

Optimize a model with 49978 rows, 13233 columns and 145254 nonzeros
Model fingerprint: 0xda32a9f1
Coefficient statistics:
  Matrix range     [1e+00, 5e+00]
  Objective range  [1e+00, 5e+00]
  Bounds range     [1e+00, 1e+00]
  RHS range        [1e+00, 1e+03]
Presolve removed 44594 rows and 11115 columns
Presolve time: 0.04s
Presolved: 5384 rows, 2118 columns, 14391 nonzeros

Concurrent LP optimizer: primal simplex, dual simplex, and barrier
Showing barrier log only...

Ordering time: 0.00s

Barrier statistics:
 Dense cols : 10
 AA' NZ     : 5.544e+03
 Factor NZ  : 1.891e+04 (roughly 1 MB of memory)
 Factor Ops : 3.313e+05 (less than 1 second per iteration)
 Threads    : 1

                  Objective                Residual
Iter       Primal          Dual         Primal    Dual     Compl     Time
   0   7.04896023e+02  7.86932479e+03  5.28e+00 4.19e+00  2.12e+01     0s
   1   2.92288004e+02  6.25476964e+03  3.29e-01 1.22e-12  3.30e+00     0s
   2   3.11867325e+02  8.19907065e+02  7.55e-03 1.09e-13  2.35e-01     0s
   3   4.01665105e+02  5.20071462e+02  2.09e-03 5.53e-14  5.47e-02     0s
   4   4.45023338e+02  4.56650236e+02  9.49e-05 3.21e-14  5.35e-03     0s
   5   4.49153796e+02  4.49529004e+02  5.95e-07 7.31e-08  1.72e-04     0s
   6   4.49249658e+02  4.49250352e+02  3.92e-09 2.17e-09  3.18e-07     0s
   7   4.49250000e+02  4.49250000e+02  7.30e-12 2.14e-11  1.44e-12     0s

Barrier solved model in 7 iterations and 0.05 seconds (0.04 work units)
Optimal objective 4.49250000e+02

Crossover log...

     143 DPushes remaining with DInf 0.0000000e+00                 0s
       0 DPushes remaining with DInf 0.0000000e+00                 0s

       0 PPushes remaining with PInf 0.0000000e+00                 0s

  Push phase complete: Pinf 0.0000000e+00, Dinf 0.0000000e+00      0s


Solved with barrier
Iteration    Objective       Primal Inf.    Dual Inf.      Time
     146    4.4925000e+02   0.000000e+00   0.000000e+00      0s

Use crossover to convert LP symmetric solution to basic solution...
Crossover log...

       0 DPushes remaining with DInf 0.0000000e+00                 0s

     332 PPushes remaining with PInf 0.0000000e+00                 0s
       0 PPushes remaining with PInf 0.0000000e+00                 0s

  Push phase complete: Pinf 0.0000000e+00, Dinf 0.0000000e+00      0s

Iteration    Objective       Primal Inf.    Dual Inf.      Time
     525    4.4925000e+02   0.000000e+00   0.000000e+00      0s

Solved in 525 iterations and 0.07 seconds (0.06 work units)
Optimal objective  4.492500000e+02
Objective value: 449.25
lam[0,0] = 0.25
lam[0,1] = 0.25
lam[0,2] = 0.25
lam[0,3] = 0.25
tau[0,0,L0] = 0.75
tau[0,0,L1] = 0.75
tau[0,0,L2] = 0.25
tau[0,1,L0] = 0.75
tau[0,1,L1] = 0.5
tau[0,1,L2] = 0.5
tau[0,2,L0] = 0.75
tau[0,2,L1] = 0.75
tau[0,2,L2] = 0.25
tau[0,3,L0] = 0.0
tau[0,3,L1] = 0.0
tau[0,3,L2] = 0.0
tau[0,4,L0] = 0.0
tau[0,4,L1] = 0.0
tau[0,4,L2] = 0.0
tau[0,5,L0] = 0.0
tau[0,5,L1] = 0.0
tau[0,5,L2] = 0.0
m[0,0] = 1.0
m[0,1] = 1.0
m[0,2] = 1.0
m[0,3] = 0.25
m[0,4] = 1.0
m[0,5] = 1.0
m[0,6] = 1.0
m[0,7] = 0.75
m[0,8] = 1.0
m[0,9] = 1.0
m[0,10] = 1.0
m[0,11] = 1.0
m[0,12] = 1.0
m[0,13] = 1.0
m[0,14] = 1.0
m[0,15] = 1.0
m[0,16] = 1.0
m[0,17] = 1.0
m[0,18] = 1.0
m[0,19] = 1.0
m[0,20] = 1.0
m[0,21] = 1.0
m[0,22] = 1.0
m[0,23] = 0.5
m[0,24] = 1.0
m[0,25] = 1.0
m[0,26] = 1.0
m[0,27] = 1.0
m[0,28] = 1.0
m[0,29] = 1.0
m[0,30] = 1.0
m[0,31] = 1.0
m[0,32] = 1.0
m[0,33] = 1.0
m[0,34] = 1.0
m[0,35] = 1.0
m[0,36] = 1.0
m[0,37] = 1.0
m[0,38] = 1.0
m[0,39] = 1.0
m[0,40] = 1.0
m[0,41] = 1.0
m[0,42] = 1.0
m[0,43] = 1.0
m[0,44] = 1.0
m[0,45] = 1.0
m[0,46] = 1.0
m[0,47] = 1.0
m[0,48] = 1.0
m[0,49] = 1.0
m[0,50] = 1.0
m[0,51] = 1.0
m[0,52] = 0.25
m[0,53] = 1.0
m[0,54] = 1.0
m[0,55] = 1.0
m[0,56] = 1.0
m[0,57] = 1.0
m[0,58] = 1.0
m[0,59] = 1.0
m[0,60] = 1.0
m[0,61] = 1.0
m[0,62] = 1.0
m[0,63] = 1.0
m[0,64] = 1.0
m[0,65] = 0.5
m[0,66] = 1.0
m[0,67] = 0.5
m[0,68] = 1.0
m[0,69] = 1.0
m[0,70] = 1.0
m[0,71] = 1.0
m[0,72] = 0.5
m[0,73] = 1.0
m[0,74] = 1.0
m[0,75] = 1.0
m[0,76] = 1.0
m[0,77] = 1.0
m[0,78] = 1.0
m[0,79] = 1.0
m[0,80] = 1.0
m[0,81] = 1.0
m[0,82] = 1.0
m[0,83] = 1.0
m[0,84] = 1.0
m[0,85] = 0.5
m[0,86] = 0.75
m[0,87] = 1.0
m[0,88] = 1.0
m[0,89] = 1.0
m[0,90] = 1.0
m[0,91] = 1.0
m[0,92] = 1.0
m[0,93] = 1.0
m[0,94] = 1.0
m[0,95] = 1.0
m[0,96] = 1.0
m[0,97] = 1.0
m[0,98] = 1.0
m[0,99] = 0.75
m[0,100] = 1.0
m[0,101] = 1.0
m[0,102] = 1.0
m[0,103] = 1.0
m[0,104] = 1.0
m[0,105] = 0.5
m[0,106] = 1.0
m[0,107] = 1.0
m[0,108] = 1.0
m[0,109] = 1.0
m[0,110] = 1.0
m[0,111] = 1.0
m[0,112] = 1.0
m[0,113] = 1.0
m[0,114] = 1.0
m[0,115] = 1.0
m[0,116] = 1.0
m[0,117] = 0.25
m[0,118] = 1.0
m[0,119] = 1.0
m[0,120] = 1.0
m[0,121] = 1.0
m[0,122] = 1.0
m[0,123] = 1.0
m[0,124] = 1.0
m[0,125] = 1.0
m[0,126] = 1.0
m[0,127] = 1.0
m[0,128] = 0.25
m[0,129] = 1.0
m[0,130] = 1.0
m[0,131] = 1.0
m[0,132] = 1.0
m[0,133] = 1.0
m[0,134] = 0.75
m[0,135] = 1.0
m[0,136] = 1.0
m[0,137] = 1.0
m[0,138] = 1.0
m[0,139] = 1.0
m[0,140] = 1.0
m[0,141] = 1.0
m[0,142] = 1.0
m[0,143] = 1.0
m[0,144] = 1.0
m[0,145] = 1.0
m[0,146] = 0.75
m[0,147] = 1.0
m[0,148] = 1.0
m[0,149] = 1.0
m[0,150] = 1.0
m[0,151] = 1.0
m[0,152] = 0.75
m[0,153] = 1.0
m[0,154] = 1.0
m[0,155] = 1.0
m[0,156] = 1.0
m[0,157] = 1.0
m[0,158] = 0.75
m[0,159] = 1.0
m[0,160] = 1.0
m[0,161] = 1.0
m[0,162] = 1.0
m[0,163] = 1.0
m[0,164] = 1.0
m[0,165] = 1.0
m[0,166] = 1.0
m[0,167] = 1.0
m[0,168] = 1.0
m[0,169] = 1.0
m[0,170] = 1.0
m[0,171] = 0.75
m[0,172] = 1.0
m[0,173] = 1.0
m[0,174] = 1.0
m[0,175] = 0.75
m[0,176] = 1.0
m[0,177] = 1.0
m[0,178] = 1.0
m[0,179] = 1.0
m[0,180] = 1.0
m[0,181] = 1.0
m[0,182] = 1.0
m[0,183] = 1.0
m[0,184] = 1.0
m[0,185] = 1.0
m[0,186] = 1.0
m[0,187] = 1.0
m[0,188] = 1.0
m[0,189] = 1.0
m[0,190] = 1.0
m[0,191] = 0.75
m[0,192] = 0.5
m[0,193] = 1.0
m[0,194] = 1.0
m[0,195] = 1.0
m[0,196] = 1.0
m[0,197] = 1.0
m[0,198] = 1.0
m[0,199] = 0.75
m[0,200] = 0.5
m[0,201] = 1.0
m[0,202] = 1.0
m[0,203] = 1.0
m[0,204] = 1.0
m[0,205] = 1.0
m[0,206] = 1.0
m[0,207] = 1.0
m[0,208] = 1.0
m[0,209] = 1.0
m[0,210] = 1.0
m[0,211] = 1.0
m[0,212] = 0.25
m[0,213] = 1.0
m[0,214] = 1.0
m[0,215] = 1.0
m[0,216] = 1.0
m[0,217] = 1.0
m[0,218] = 1.0
m[0,219] = 1.0
m[0,220] = 1.0
m[0,221] = 1.0
m[0,222] = 1.0
m[0,223] = 1.0
m[0,224] = 1.0
m[0,225] = 1.0
m[0,226] = 1.0
m[0,227] = 1.0
m[0,228] = 1.0
m[0,229] = 1.0
m[0,230] = 1.0
m[0,231] = 1.0
m[0,232] = 1.0
m[0,233] = 1.0
m[0,234] = 1.0
m[0,235] = 1.0
m[0,236] = 1.0
m[0,237] = 1.0
m[0,238] = 0.25
m[0,239] = 1.0
m[0,240] = 1.0
m[0,241] = 1.0
m[0,242] = 1.0
m[0,243] = 1.0
m[0,244] = 1.0
m[0,245] = 1.0
m[0,246] = 1.0
m[0,247] = 1.0
m[0,248] = 1.0
m[0,249] = 1.0
m[0,250] = 1.0
m[0,251] = 1.0
m[0,252] = 1.0
m[0,253] = 0.75
m[0,254] = 1.0
m[0,255] = 1.0
m[0,256] = 1.0
m[0,257] = 1.0
m[0,258] = 1.0
m[0,259] = 1.0
m[0,260] = 0.25
m[0,261] = 1.0
m[0,262] = 1.0
m[0,263] = 1.0
m[0,264] = 1.0
m[0,265] = 0.5
m[0,266] = 1.0
m[0,267] = 1.0
m[0,268] = 1.0
m[0,269] = 1.0
m[0,270] = 1.0
m[0,271] = 1.0
m[0,272] = 1.0
m[0,273] = 1.0
m[0,274] = 1.0
m[0,275] = 1.0
m[0,276] = 1.0
m[0,277] = 1.0
m[0,278] = 1.0
m[0,279] = 1.0
m[0,280] = 1.0
m[0,281] = 1.0
m[0,282] = 1.0
m[0,283] = 1.0
m[0,284] = 1.0
m[0,285] = 1.0
m[0,286] = 1.0
m[0,287] = 1.0
m[0,288] = 1.0
m[0,289] = 1.0
m[0,290] = 1.0
m[0,291] = 1.0
m[0,292] = 1.0
m[0,293] = 1.0
m[0,294] = 1.0
m[0,295] = 1.0
m[0,296] = 1.0
m[0,297] = 1.0
m[0,298] = 1.0
m[0,299] = 1.0
m[0,300] = 0.5
m[0,301] = 1.0
m[0,302] = 1.0
m[0,303] = 1.0
m[0,304] = 0.75
m[0,305] = 1.0
m[0,306] = 1.0
m[0,307] = 1.0
m[0,308] = 0.5
m[0,309] = 1.0
m[0,310] = 1.0
m[0,311] = 1.0
m[0,312] = 1.0
m[0,313] = 1.0
m[0,314] = 1.0
m[0,315] = 1.0
m[0,316] = 1.0
m[0,317] = 0.25
m[0,318] = 1.0
m[0,319] = 1.0
m[0,320] = 0.75
m[0,321] = 1.0
m[0,322] = 1.0
m[0,323] = 1.0
m[0,324] = 1.0
m[0,325] = 0.75
m[0,326] = 1.0
m[0,327] = 0.75
m[0,328] = 1.0
m[0,329] = 1.0
m[0,330] = 1.0
m[0,331] = 1.0
m[0,332] = 0.25
m[0,333] = 1.0
m[0,334] = 1.0
m[0,335] = 1.0
m[0,336] = 1.0
m[0,337] = 1.0
m[0,338] = 1.0
m[0,339] = 0.75
m[0,340] = 1.0
m[0,341] = 1.0
m[0,342] = 0.75
m[0,343] = 1.0
m[0,344] = 1.0
m[0,345] = 1.0
m[0,346] = 1.0
m[0,347] = 1.0
m[0,348] = 0.75
m[0,349] = 1.0
m[0,350] = 1.0
m[0,351] = 1.0
m[0,352] = 1.0
m[0,353] = 1.0
m[0,354] = 1.0
m[0,355] = 1.0
m[0,356] = 1.0
m[0,357] = 1.0
m[0,358] = 1.0
m[0,359] = 1.0
m[0,360] = 1.0
m[0,361] = 1.0
m[0,362] = 1.0
m[0,363] = 1.0
m[0,364] = 1.0
m[0,365] = 1.0
m[0,366] = 1.0
m[0,367] = 1.0
m[0,368] = 1.0
m[0,369] = 1.0
m[0,370] = 1.0
m[0,371] = 1.0
m[0,372] = 1.0
m[0,373] = 0.25
m[0,374] = 1.0
m[0,375] = 1.0
m[0,376] = 1.0
m[0,377] = 1.0
m[0,378] = 1.0
m[0,379] = 1.0
m[0,380] = 1.0
m[0,381] = 1.0
m[0,382] = 1.0
m[0,383] = 1.0
m[0,384] = 0.5
m[0,385] = 1.0
m[0,386] = 1.0
m[0,387] = 0.5
m[0,388] = 1.0
m[0,389] = 1.0
m[0,390] = 1.0
m[0,391] = 1.0
m[0,392] = 1.0
m[0,393] = 1.0
m[0,394] = 1.0
m[0,395] = 1.0
m[0,396] = 0.5
m[0,397] = 1.0
m[0,398] = 1.0
m[0,399] = 1.0
m[0,400] = 1.0
m[0,401] = 1.0
m[0,402] = 0.5
m[0,403] = 1.0
m[0,404] = 1.0
m[0,405] = 1.0
m[0,406] = 1.0
m[0,407] = 1.0
m[0,408] = 1.0
m[0,409] = 1.0
m[0,410] = 1.0
m[0,411] = 0.25
m[0,412] = 1.0
m[0,413] = 1.0
m[0,414] = 1.0
m[0,415] = 1.0
m[0,416] = 1.0
m[0,417] = 1.0
m[0,418] = 0.75
m[0,419] = 1.0
m[0,420] = 1.0
m[0,421] = 1.0
m[0,422] = 1.0
m[0,423] = 1.0
m[0,424] = 1.0
m[0,425] = 1.0
m[0,426] = 0.25
m[0,427] = 1.0
m[0,428] = 1.0
m[0,429] = 0.75
m[0,430] = 0.75
m[0,431] = 1.0
m[0,432] = 1.0
m[0,433] = 0.25
m[0,434] = 1.0
m[0,435] = 1.0
m[0,436] = 0.75
m[0,437] = 0.75
m[0,438] = 1.0
m[0,439] = 0.75
m[0,440] = 0.25
m[0,441] = 1.0
m[0,442] = 1.0
m[0,443] = 0.75
m[0,444] = 1.0
m[0,445] = 1.0
m[0,446] = 1.0
m[0,447] = 1.0
m[0,448] = 1.0
m[0,449] = 0.75
m[0,450] = 1.0
m[0,451] = 1.0
m[0,452] = 0.75
m[0,453] = 1.0
m[0,454] = 1.0
m[0,455] = 1.0
m[0,456] = 1.0
m[0,457] = 1.0
m[0,458] = 1.0
m[0,459] = 1.0
m[0,460] = 1.0
m[0,461] = 1.0
m[0,462] = 0.5
m[0,463] = 1.0
m[0,464] = 1.0
m[0,465] = 1.0
m[0,466] = 1.0
m[0,467] = 1.0
m[0,468] = 1.0
m[0,469] = 1.0
m[0,470] = 1.0
u[0] = 1.0
o_u[0,0] = 0.25
o_u[0,1] = 0.25
o_u[0,2] = 0.25
o_u[0,3] = 0.25
------------------------------------------------------------------------
------------------------------------------------------------------------
Saved hierarchical tree visualization to milp_tree_levels.png
THIS IS THE INITIAL CORRECTNESS 0.945859872611465
THIS IS THE INITIAL EXPLAINABILITY 3.75
Inside find_pareto_solution_more_e
----------------------------------
THE CURRENT CORRECTNESS IS: 0.945859872611465, AND THE CURRENT EXPLAINABILITY IS: 3.75
Gurobi Optimizer version 12.0.3 build v12.0.3rc0 (linux64 - "Ubuntu 22.04.5 LTS")

CPU model: AMD EPYC 7742 64-Core Processor, instruction set [SSE2|AVX|AVX2]
Thread count: 128 physical cores, 256 logical processors, using up to 32 threads

Optimize a model with 49980 rows, 13233 columns and 145730 nonzeros
Coefficient statistics:
  Matrix range     [1e+00, 5e+00]
  Objective range  [1e+00, 5e+00]
  Bounds range     [1e+00, 1e+00]
  RHS range        [1e+00, 1e+03]
LP warm-start: use basis

Iteration    Objective       Primal Inf.    Dual Inf.      Time
       0    4.4925000e+02   1.125000e+00   0.000000e+00      0s
    2140    3.6175000e+02   0.000000e+00   0.000000e+00      0s

Solved in 2140 iterations and 0.14 seconds (0.14 work units)
Optimal objective  3.617500000e+02
Objective value: 361.75
lam[0,0] = 0.0
lam[0,1] = 0.25
lam[0,2] = 0.75
lam[0,3] = 0.0
tau[0,0,L0] = 0.75
tau[0,0,L1] = 0.5
tau[0,0,L2] = 0.0
tau[0,1,L0] = 0.75
tau[0,1,L1] = 0.5
tau[0,1,L2] = 0.0
tau[0,2,L0] = 0.5
tau[0,2,L1] = 0.75
tau[0,2,L2] = 0.0
tau[0,3,L0] = 0.0
tau[0,3,L1] = 0.0
tau[0,3,L2] = 0.0
tau[0,4,L0] = 0.0
tau[0,4,L1] = 0.0
tau[0,4,L2] = 0.0
tau[0,5,L0] = 0.0
tau[0,5,L1] = 0.0
tau[0,5,L2] = 0.0
m[0,0] = 1.0
m[0,1] = 1.0
m[0,2] = 0.75
m[0,3] = 0.0
m[0,4] = 1.0
m[0,5] = 0.5
m[0,6] = 0.75
m[0,7] = 0.75
m[0,8] = 0.5
m[0,9] = 1.0
m[0,10] = 1.0
m[0,11] = 0.5
m[0,12] = 0.5
m[0,13] = 1.0
m[0,14] = 1.0
m[0,15] = 1.0
m[0,16] = 1.0
m[0,17] = 1.0
m[0,18] = 0.5
m[0,19] = 1.0
m[0,20] = 0.75
m[0,21] = 1.0
m[0,22] = 0.75
m[0,23] = 0.0
m[0,24] = 1.0
m[0,25] = 1.0
m[0,26] = 1.0
m[0,27] = 1.0
m[0,28] = 0.75
m[0,29] = 1.0
m[0,30] = 1.0
m[0,31] = 0.5
m[0,32] = 1.0
m[0,33] = 0.75
m[0,34] = 1.0
m[0,35] = 0.75
m[0,36] = 0.5
m[0,37] = 1.0
m[0,38] = 1.0
m[0,39] = 0.75
m[0,40] = 0.75
m[0,41] = 1.0
m[0,42] = 1.0
m[0,43] = 0.75
m[0,44] = 1.0
m[0,45] = 0.75
m[0,46] = 0.75
m[0,47] = 1.0
m[0,48] = 1.0
m[0,49] = 1.0
m[0,50] = 1.0
m[0,51] = 0.5
m[0,52] = 0.0
m[0,53] = 0.75
m[0,54] = 0.75
m[0,55] = 0.75
m[0,56] = 0.75
m[0,57] = 0.75
m[0,58] = 1.0
m[0,59] = 0.75
m[0,60] = 0.75
m[0,61] = 0.75
m[0,62] = 0.75
m[0,63] = 1.0
m[0,64] = 1.0
m[0,65] = 0.0
m[0,66] = 0.75
m[0,67] = 0.0
m[0,68] = 0.75
m[0,69] = 1.0
m[0,70] = 0.75
m[0,71] = 1.0
m[0,72] = 0.0
m[0,73] = 0.75
m[0,74] = 1.0
m[0,75] = 1.0
m[0,76] = 0.5
m[0,77] = 0.75
m[0,78] = 0.75
m[0,79] = 0.75
m[0,80] = 0.75
m[0,81] = 1.0
m[0,82] = 1.0
m[0,83] = 1.0
m[0,84] = 0.5
m[0,85] = 0.0
m[0,86] = 0.0
m[0,87] = 0.75
m[0,88] = 1.0
m[0,89] = 1.0
m[0,90] = 1.0
m[0,91] = 1.0
m[0,92] = 0.75
m[0,93] = 0.75
m[0,94] = 1.0
m[0,95] = 1.0
m[0,96] = 1.0
m[0,97] = 1.0
m[0,98] = 0.75
m[0,99] = 0.5
m[0,100] = 1.0
m[0,101] = 1.0
m[0,102] = 1.0
m[0,103] = 0.75
m[0,104] = 1.0
m[0,105] = 0.0
m[0,106] = 1.0
m[0,107] = 0.5
m[0,108] = 0.75
m[0,109] = 1.0
m[0,110] = 0.75
m[0,111] = 0.75
m[0,112] = 0.75
m[0,113] = 0.75
m[0,114] = 1.0
m[0,115] = 0.75
m[0,116] = 1.0
m[0,117] = 0.0
m[0,118] = 1.0
m[0,119] = 0.75
m[0,120] = 1.0
m[0,121] = 0.5
m[0,122] = 1.0
m[0,123] = 1.0
m[0,124] = 1.0
m[0,125] = 1.0
m[0,126] = 1.0
m[0,127] = 0.5
m[0,128] = 0.0
m[0,129] = 0.75
m[0,130] = 1.0
m[0,131] = 0.75
m[0,132] = 1.0
m[0,133] = 1.0
m[0,134] = 0.0
m[0,135] = 1.0
m[0,136] = 0.75
m[0,137] = 1.0
m[0,138] = 0.5
m[0,139] = 0.75
m[0,140] = 0.75
m[0,141] = 0.75
m[0,142] = 0.5
m[0,143] = 0.75
m[0,144] = 0.75
m[0,145] = 1.0
m[0,146] = 0.75
m[0,147] = 0.5
m[0,148] = 1.0
m[0,149] = 0.5
m[0,150] = 1.0
m[0,151] = 0.75
m[0,152] = 0.75
m[0,153] = 1.0
m[0,154] = 0.75
m[0,155] = 1.0
m[0,156] = 1.0
m[0,157] = 0.75
m[0,158] = 0.75
m[0,159] = 0.5
m[0,160] = 1.0
m[0,161] = 1.0
m[0,162] = 1.0
m[0,163] = 0.75
m[0,164] = 1.0
m[0,165] = 1.0
m[0,166] = 1.0
m[0,167] = 0.75
m[0,168] = 1.0
m[0,169] = 0.5
m[0,170] = 1.0
m[0,171] = 0.75
m[0,172] = 1.0
m[0,173] = 0.75
m[0,174] = 1.0
m[0,175] = 0.0
m[0,176] = 0.75
m[0,177] = 0.5
m[0,178] = 0.75
m[0,179] = 1.0
m[0,180] = 0.5
m[0,181] = 1.0
m[0,182] = 0.5
m[0,183] = 0.5
m[0,184] = 0.5
m[0,185] = 1.0
m[0,186] = 1.0
m[0,187] = 0.5
m[0,188] = 1.0
m[0,189] = 0.5
m[0,190] = 0.75
m[0,191] = 0.0
m[0,192] = 0.0
m[0,193] = 1.0
m[0,194] = 1.0
m[0,195] = 1.0
m[0,196] = 0.75
m[0,197] = 1.0
m[0,198] = 1.0
m[0,199] = 0.75
m[0,200] = 0.0
m[0,201] = 0.5
m[0,202] = 0.5
m[0,203] = 0.75
m[0,204] = 1.0
m[0,205] = 0.5
m[0,206] = 1.0
m[0,207] = 1.0
m[0,208] = 1.0
m[0,209] = 0.75
m[0,210] = 1.0
m[0,211] = 0.5
m[0,212] = 0.0
m[0,213] = 0.75
m[0,214] = 0.75
m[0,215] = 0.75
m[0,216] = 0.5
m[0,217] = 0.5
m[0,218] = 0.5
m[0,219] = 0.5
m[0,220] = 1.0
m[0,221] = 1.0
m[0,222] = 1.0
m[0,223] = 1.0
m[0,224] = 0.5
m[0,225] = 1.0
m[0,226] = 1.0
m[0,227] = 1.0
m[0,228] = 1.0
m[0,229] = 0.75
m[0,230] = 0.75
m[0,231] = 0.75
m[0,232] = 1.0
m[0,233] = 0.75
m[0,234] = 1.0
m[0,235] = 1.0
m[0,236] = 0.75
m[0,237] = 1.0
m[0,238] = 0.0
m[0,239] = 1.0
m[0,240] = 0.5
m[0,241] = 1.0
m[0,242] = 1.0
m[0,243] = 0.75
m[0,244] = 1.0
m[0,245] = 1.0
m[0,246] = 0.75
m[0,247] = 0.75
m[0,248] = 1.0
m[0,249] = 1.0
m[0,250] = 1.0
m[0,251] = 0.75
m[0,252] = 0.5
m[0,253] = 1.0
m[0,254] = 0.5
m[0,255] = 1.0
m[0,256] = 1.0
m[0,257] = 0.75
m[0,258] = 0.75
m[0,259] = 1.0
m[0,260] = 0.0
m[0,261] = 0.75
m[0,262] = 1.0
m[0,263] = 1.0
m[0,264] = 0.75
m[0,265] = 0.0
m[0,266] = 0.75
m[0,267] = 1.0
m[0,268] = 0.75
m[0,269] = 0.75
m[0,270] = 1.0
m[0,271] = 0.75
m[0,272] = 0.5
m[0,273] = 0.75
m[0,274] = 1.0
m[0,275] = 0.5
m[0,276] = 0.5
m[0,277] = 1.0
m[0,278] = 0.75
m[0,279] = 1.0
m[0,280] = 0.5
m[0,281] = 1.0
m[0,282] = 0.75
m[0,283] = 0.5
m[0,284] = 0.5
m[0,285] = 0.75
m[0,286] = 1.0
m[0,287] = 1.0
m[0,288] = 0.75
m[0,289] = 1.0
m[0,290] = 1.0
m[0,291] = 0.75
m[0,292] = 0.75
m[0,293] = 0.5
m[0,294] = 1.0
m[0,295] = 1.0
m[0,296] = 0.75
m[0,297] = 1.0
m[0,298] = 0.75
m[0,299] = 0.5
m[0,300] = 0.0
m[0,301] = 1.0
m[0,302] = 0.75
m[0,303] = 1.0
m[0,304] = 0.5
m[0,305] = 0.75
m[0,306] = 0.75
m[0,307] = 0.75
m[0,308] = 0.0
m[0,309] = 1.0
m[0,310] = 0.75
m[0,311] = 1.0
m[0,312] = 1.0
m[0,313] = 0.5
m[0,314] = 1.0
m[0,315] = 1.0
m[0,316] = 1.0
m[0,317] = 0.0
m[0,318] = 1.0
m[0,319] = 1.0
m[0,320] = 0.5
m[0,321] = 0.75
m[0,322] = 0.75
m[0,323] = 0.5
m[0,324] = 1.0
m[0,325] = 0.0
m[0,326] = 1.0
m[0,327] = 0.75
m[0,328] = 0.75
m[0,329] = 1.0
m[0,330] = 1.0
m[0,331] = 0.75
m[0,332] = 0.0
m[0,333] = 0.75
m[0,334] = 0.5
m[0,335] = 1.0
m[0,336] = 0.5
m[0,337] = 0.75
m[0,338] = 1.0
m[0,339] = 0.0
m[0,340] = 1.0
m[0,341] = 0.75
m[0,342] = 0.5
m[0,343] = 1.0
m[0,344] = 1.0
m[0,345] = 1.0
m[0,346] = 0.75
m[0,347] = 0.75
m[0,348] = 0.5
m[0,349] = 0.75
m[0,350] = 1.0
m[0,351] = 0.5
m[0,352] = 1.0
m[0,353] = 0.75
m[0,354] = 1.0
m[0,355] = 1.0
m[0,356] = 1.0
m[0,357] = 1.0
m[0,358] = 0.75
m[0,359] = 1.0
m[0,360] = 0.75
m[0,361] = 1.0
m[0,362] = 0.5
m[0,363] = 0.5
m[0,364] = 0.75
m[0,365] = 1.0
m[0,366] = 0.5
m[0,367] = 1.0
m[0,368] = 1.0
m[0,369] = 1.0
m[0,370] = 0.75
m[0,371] = 1.0
m[0,372] = 1.0
m[0,373] = 0.0
m[0,374] = 1.0
m[0,375] = 1.0
m[0,376] = 0.5
m[0,377] = 1.0
m[0,378] = 0.5
m[0,379] = 0.75
m[0,380] = 1.0
m[0,381] = 1.0
m[0,382] = 1.0
m[0,383] = 0.75
m[0,384] = 0.0
m[0,385] = 0.75
m[0,386] = 0.75
m[0,387] = 0.0
m[0,388] = 1.0
m[0,389] = 1.0
m[0,390] = 1.0
m[0,391] = 1.0
m[0,392] = 0.5
m[0,393] = 0.75
m[0,394] = 0.5
m[0,395] = 0.75
m[0,396] = 0.0
m[0,397] = 1.0
m[0,398] = 0.75
m[0,399] = 1.0
m[0,400] = 1.0
m[0,401] = 1.0
m[0,402] = 0.0
m[0,403] = 1.0
m[0,404] = 1.0
m[0,405] = 1.0
m[0,406] = 0.75
m[0,407] = 0.5
m[0,408] = 1.0
m[0,409] = 1.0
m[0,410] = 0.75
m[0,411] = 0.0
m[0,412] = 0.75
m[0,413] = 0.75
m[0,414] = 0.75
m[0,415] = 0.75
m[0,416] = 1.0
m[0,417] = 1.0
m[0,418] = 0.0
m[0,419] = 1.0
m[0,420] = 0.75
m[0,421] = 0.75
m[0,422] = 1.0
m[0,423] = 0.75
m[0,424] = 1.0
m[0,425] = 0.75
m[0,426] = 0.0
m[0,427] = 0.75
m[0,428] = 0.75
m[0,429] = 0.0
m[0,430] = 0.0
m[0,431] = 0.75
m[0,432] = 0.5
m[0,433] = 0.0
m[0,434] = 0.5
m[0,435] = 0.5
m[0,436] = 0.0
m[0,437] = 0.5
m[0,438] = 1.0
m[0,439] = 0.5
m[0,440] = 0.0
m[0,441] = 1.0
m[0,442] = 0.5
m[0,443] = 0.0
m[0,444] = 0.75
m[0,445] = 0.75
m[0,446] = 1.0
m[0,447] = 1.0
m[0,448] = 0.75
m[0,449] = 0.75
m[0,450] = 1.0
m[0,451] = 1.0
m[0,452] = 0.0
m[0,453] = 1.0
m[0,454] = 1.0
m[0,455] = 1.0
m[0,456] = 1.0
m[0,457] = 1.0
m[0,458] = 1.0
m[0,459] = 1.0
m[0,460] = 0.75
m[0,461] = 0.5
m[0,462] = 0.0
m[0,463] = 1.0
m[0,464] = 1.0
m[0,465] = 1.0
m[0,466] = 0.75
m[0,467] = 0.75
m[0,468] = 0.75
m[0,469] = 1.0
m[0,470] = 0.75
u[0] = 1.0
o_u[0,0] = 0.0
o_u[0,1] = 0.25
o_u[0,2] = 0.75
o_u[0,3] = 0.0
THE NEW CORRECTNESS IS: 0.7579617834394905, AND THE NEW EXPLAINABILITY IS: 4.75
************************************************************
New pareto points added, correctness = 0.7579617834394905 , explainability = 4.75
App ending 1......
End of find_pareto_solution_more_e 4 @@@@@@@@@@@@@
Inside find_pareto_solution_more_e
----------------------------------
THE CURRENT CORRECTNESS IS: 0.7579617834394905, AND THE CURRENT EXPLAINABILITY IS: 4.75
Gurobi Optimizer version 12.0.3 build v12.0.3rc0 (linux64 - "Ubuntu 22.04.5 LTS")

CPU model: AMD EPYC 7742 64-Core Processor, instruction set [SSE2|AVX|AVX2]
Thread count: 128 physical cores, 256 logical processors, using up to 32 threads

Optimize a model with 49980 rows, 13233 columns and 145730 nonzeros
Model fingerprint: 0x39b9c9f8
Coefficient statistics:
  Matrix range     [1e+00, 5e+00]
  Objective range  [1e+00, 5e+00]
  Bounds range     [1e+00, 1e+00]
  RHS range        [1e+00, 1e+03]
Presolve removed 44538 rows and 11087 columns
Presolve time: 0.03s
Presolved: 5442 rows, 2146 columns, 15006 nonzeros

Concurrent LP optimizer: primal simplex, dual simplex, and barrier
Showing barrier log only...

Ordering time: 0.00s

Barrier statistics:
 Dense cols : 10
 AA' NZ     : 6.030e+03
 Factor NZ  : 1.823e+04 (roughly 1 MB of memory)
 Factor Ops : 3.085e+05 (less than 1 second per iteration)
 Threads    : 1

                  Objective                Residual
Iter       Primal          Dual         Primal    Dual     Compl     Time
   0   3.45361260e+03  1.83316139e+03  3.83e+02 2.18e-01  1.99e+01     0s
   1   5.22434438e+02  2.48283739e+03  2.04e+01 3.15e-03  1.86e+00     0s
   2   4.73818266e+02  8.94534306e+02  1.43e+01 3.63e-04  5.08e-01     0s
   3   4.29279451e+02  4.70912321e+02  8.61e+00 2.01e-04  3.13e-01     0s
   4   4.10202797e+02  8.84369993e+00  6.26e+00 1.20e-04  2.03e-01     0s
   5   3.99349501e+02 -1.42948285e+02  5.60e+00 8.19e-05  1.84e-01     0s
   6   3.58344499e+02 -2.48730435e+02  5.08e+00 7.30e-05  1.73e-01     0s
   7   3.64532377e+02 -9.29215535e+02  5.01e+00 7.39e-05  2.17e-01     0s
   8   3.55471113e+02 -6.50044396e+03  4.63e+00 7.95e-05  3.54e-01     0s
   9   3.53431118e+02 -1.61542841e+05  4.50e+00 5.01e-05  2.90e+00     0s
  10   3.52248134e+02 -1.56822383e+08  4.42e+00 3.68e-05  1.32e+03     0s
  11   3.35370641e+02 -2.09952124e+08  4.36e+00 3.73e-05  9.87e+02     0s
  12   2.76560146e+02 -2.27242536e+08  4.33e+00 6.07e-07  8.79e+02     0s
  13   2.58206862e+02 -7.46978601e+08  4.29e+00 1.58e-06  2.26e+03     0s
  14   2.39322223e+02 -4.44115119e+09  2.85e+00 9.83e-07  1.12e+05     0s
  15   3.45361260e+03  1.83316139e+03  3.83e+02 2.18e-01  1.99e+01     0s
  16   4.19754996e+02  3.87192610e+02  1.43e+01 1.40e-01  9.35e-02     0s
  17   4.18429215e+02  3.70778077e+02  1.66e+01 5.45e-02  8.60e-02     0s
  18   3.79352875e+02  3.61314894e+02  7.14e+00 2.34e-02  4.02e-02     0s
  19   3.51995969e+02  2.78220116e+02  5.09e+00 1.39e-02  7.62e-02     0s
  20   2.75918519e+02  2.27061257e+02  4.99e+00 1.03e-02  1.57e-01     0s
  21   2.08422564e+02 -1.96164205e+02  5.08e+00 2.92e-13  6.36e-01     0s
  22   1.70033105e+02 -1.53333614e+04  6.70e+00 7.34e-11  3.47e+02     0s
  23*  2.15517521e+02 -2.62050494e+05  2.27e-03 1.72e-04  3.29e-02     0s
  24*  2.15565855e+02 -1.27410099e+10  5.46e-08 1.06e-06  3.78e-06     0s

Barrier performed 24 iterations in 0.05 seconds (0.05 work units)
Barrier solve interrupted - model solved by another algorithm


Solved with primal simplex
Concurrent LP optimizer: primal simplex, dual simplex, and barrier
Showing barrier log only...

Ordering time: 0.00s

Barrier statistics:
 Dense cols : 10
 AA' NZ     : 2.870e+04
 Factor NZ  : 8.100e+04 (roughly 4 MB of memory)
 Factor Ops : 2.203e+06 (less than 1 second per iteration)
 Threads    : 30

                  Objective                Residual
Iter       Primal          Dual         Primal    Dual     Compl     Time
   0   1.29427839e+04  7.92952113e+02  1.22e+04 3.64e-03  5.32e+00     0s
   1   1.73535206e+03  1.05417093e+03  1.34e+03 1.49e-02  6.40e-01     0s
   2   5.47389679e+02  1.00849410e+03  1.82e+02 9.52e-03  1.45e-01     0s
   3   4.82061300e+02  6.18566750e+02  1.19e+02 1.82e-04  5.41e-02     0s
   4   4.33971795e+02  4.88215432e+02  7.12e+01 1.80e-04  3.48e-02     0s
   5   4.23481697e+02  3.93759467e+02  6.09e+01 9.45e-05  2.58e-02     0s
   6   4.21228230e+02  3.53019415e+02  5.86e+01 6.12e-05  2.44e-02     0s
   7   4.15353146e+02  2.19712858e+02  5.29e+01 1.08e-04  2.53e-02     0s
   8   4.11748175e+02  1.11583459e+02  4.94e+01 8.03e-05  2.56e-02     0s
   9   4.06151801e+02  2.49083852e+01  4.40e+01 8.72e-05  2.22e-02     0s
  10   4.00768099e+02 -2.10237018e+02  3.91e+01 9.54e-05  1.99e-02     0s
  11   3.96615025e+02 -3.39900476e+02  3.85e+01 8.74e-05  2.10e-02     0s
  12   3.92693040e+02 -5.47007471e+02  3.75e+01 8.32e-05  2.13e-02     0s
  13   3.91605020e+02 -2.68591848e+03  3.71e+01 3.15e-05  3.42e-02     0s
  14   3.89103583e+02 -4.18923047e+04  3.62e+01 2.62e-05  1.29e-01     0s
  15   3.87778655e+02 -4.71323597e+06  3.58e+01 1.05e-05  6.24e+00     0s
  16   3.87151168e+02 -7.80442147e+09  3.55e+01 2.67e-05  9.14e+03     0s
  17   1.29427839e+04  7.92952113e+02  1.22e+04 3.64e-03  5.32e+00     0s
  18   6.42858508e+02  3.61869535e+02  2.79e+02 2.79e-03  2.84e-03     0s
  19   4.36014753e+02  3.61381440e+02  7.42e+01 4.64e-04  4.78e-04     0s
  20   4.78865313e+02  3.61219590e+02  1.17e+02 3.20e-04  7.58e-04     0s
  21   4.15062509e+02  3.60707006e+02  5.38e+01 2.63e-04  3.85e-04     0s
  22   4.16014146e+02  3.15642774e+02  6.92e+01 9.29e-03  1.48e-02     0s
  23   3.36027918e+02  1.25928423e+02  7.24e+01 1.25e-02  1.05e-01     0s
  24   1.80683770e+02 -7.55266706e+02  7.11e+01 1.03e-02  6.04e-01     0s
  25   1.89750307e+02 -1.75620101e+03  8.10e+01 1.35e-02  1.42e+01     0s
  26*  2.38885906e+02 -6.15880326e+04  1.01e-02 5.13e-05  9.49e-05     0s
  27*  2.38502184e+02 -3.69777196e+10  1.28e-08 7.66e-08  1.38e-10     0s

Barrier performed 27 iterations in 0.21 seconds (0.10 work units)
Infeasible model


Solved with barrier

Solved in 0 iterations and 0.21 seconds (0.11 work units)
Infeasible model
[INFO] Model became infeasible under the new cuts.
End of find_pareto_solution_more_e 2 @@@@@@@@@@@
Inside find_pareto_solution_more_c
Gurobi Optimizer version 12.0.3 build v12.0.3rc0 (linux64 - "Ubuntu 22.04.5 LTS")

CPU model: AMD EPYC 7742 64-Core Processor, instruction set [SSE2|AVX|AVX2]
Thread count: 128 physical cores, 256 logical processors, using up to 32 threads

Optimize a model with 49980 rows, 13233 columns and 145730 nonzeros
Coefficient statistics:
  Matrix range     [1e+00, 5e+00]
  Objective range  [1e+00, 5e+00]
  Bounds range     [1e+00, 1e+00]
  RHS range        [1e+00, 1e+03]
LP warm-start: use basis

Iteration    Objective       Primal Inf.    Dual Inf.      Time
       0    4.4925000e+02   1.125000e+00   0.000000e+00      0s

Solved in 0 iterations and 0.02 seconds (0.01 work units)
Infeasible model
[INFO] Model became infeasible under the new cuts.
End of find_pareto_solution_more_c 1 |||||||||||||||||
[0.7579617834394905, 4.75]
Printing original list
[0.7579617834394905, 4.75]
Printing list after change
[0.7579617834394905, 4.75]
App ending 3....................... c = 0.945859872611465 , e = 3.75

 Total time taken: 7.589011192321777 seconds